c turning on binary mode checking
c parsing input formula with 259840 variables and 1039934 clauses
c finished parsing, read 23087958 bytes from proof file
c detected empty clause; start verification via backward checking
c 10352 of 1039934 clauses in core                            
c 12327 of 599790 lemmas in core using 101080 resolution steps
c 0 RAT lemmas in core; 910 redundant literals in core lemmas
s VERIFIED
c verification time: 2.223 seconds
